50 25
   1   20   -1   -1    5    3   -1   -1   -1   23   21   -1    8   18   21    3   -1    8   -1   -1   -1   17    6    7   -1   10   -1    0   -1   -1   15    7    8   -1   -1   -1   13   -1   -1    2   21   -1   -1   -1   -1   18   20    4   16   23 
   0    1    3   -1    0   17   -1   19   -1    7   22   20   -1   15   15    8   -1   18    8   -1   -1    2   -1    8   -1   -1    0   16   -1   -1   -1   14   -1   -1   -1   21    8   23    5   24   -1   13   21    3   -1    1    5    2   16   -1 
   0    0    1   -1   16   -1   -1    9   21   -1   -1    3   -1   10   -1   15    2   -1   -1   16   11   14   -1   17    2   -1   21   -1   16   -1   -1    4   -1   -1   -1   -1   -1   -1   19   -1   -1    1   -1   10   23   -1   -1    9   18   22 
   0    0    0    1   10   -1   17   -1   -1    2    0    4   17   -1    1   -1   -1   -1   -1   19   13   -1    3   23   -1    6   -1   -1   -1   -1   24   -1   -1   17   -1   -1    6   19   -1    8   -1   13   20    7   -1    7    9   18    3   23 
   0    0    0    0    1   21   23   -1   19   -1   -1    7   21   -1   13   20   20   -1   -1   -1   -1   19   23   13   17   -1   15   22   -1   -1   24   20   -1   -1   -1   -1   -1   -1   -1   24    9   12   -1    6   -1   -1   13   -1    8    2 
   0    0    0    0    0    1    6    2    2    1    9    8   -1   -1   -1   -1   -1   -1   20   -1    1   -1   -1   -1    6   -1   10   -1   -1    6   -1   -1   -1   -1   24   -1   19   -1   -1   -1   24   -1    9   -1   -1    1    0   20    0   -1 
   0    0    0    0    0    0    1   -1   18   20   -1    0   21   -1    2   17   13    9   -1   -1    7   15    4   22   -1   -1   -1    5   14   17   -1   -1   -1    3    8   -1   -1   -1   22    8   15   18   22   -1   -1   -1   -1   14   -1   15 
   0    0    0    0    0    0    0    1   -1    8   16   -1   23    9   11   15   -1   21    2   -1   -1   11   -1   -1    6   22   -1   -1   17    1   -1   -1   21   -1   -1   -1   11   -1   -1    2   21    0   -1   23   -1   -1   17   -1   -1   -1 
   0    0    0    0    0    0    0    0    1   20   -1   -1   -1   -1   -1    9   -1    2   -1    8    7   13   23   -1   17   18   -1   -1    5   -1   19    4   -1   -1   -1   17   24   -1   -1   -1   -1   -1   -1   14   -1   -1    7    5   -1   -1 
   0    0    0    0    0    0    0    0    0    1   -1   -1   -1   -1   -1   11    0    7   20   -1   14    1   -1    0   -1   -1   11   -1   -1   -1   -1   -1    1   14   12   -1    0   -1   22    7   13   -1   21   -1   23   -1   12   -1   -1   -1 
   0    0    0    0    0    0    0    0    0    0    0    9   23   -1   -1   14    9   -1   -1   -1   -1   21   -1   -1   -1    1   -1   -1   -1   -1   24   10    1    4   -1   -1    3   -1   16   24    7   -1    6   -1   20    0   -1   -1   -1   11 
   0    0    0    0    0    0    0    0    0    0    0    0    2   -1    3    7   -1   11   11    0   -1   -1   22   -1   15   -1   -1   23   -1   -1   -1   -1   18   -1   -1   -1    3    6   -1   23   19   20   -1   19   -1   -1   -1   16   23   12 
   0    0    0    0    0    0    0    0    0    0    0    0    0    1    9   22    0   17   -1   22   -1   -1   18   12   -1   13   -1   -1   -1   -1   22   15   -1   24    7   13   -1   17   -1   -1    1   -1   13   -1   -1   -1   -1   -1   -1   -1 
   0    0    0    0    0    0    0    0    0    0    0    0    0    0   -1   -1   -1    2   14   -1    0   14   -1   -1   24   -1   17   -1   20   -1   -1   -1   -1   14   -1   -1   -1   -1   -1   -1   -1   -1    6   -1   16   13   -1   -1   -1   -1 
   0    0    0    0    0    0    0    0    0    0    0    0    0    0    0   -1   17   18   18   -1    9   21    8   22   11   17   20   -1   -1    6   -1    8   14   20   -1   -1   11   13    3   12   -1    8   -1   24   -1   16   -1   10    5    1 
   0    0    0    0    0    0    0    0    0    0    0    0    0    0    0    0   20    8    7   16   -1   -1   -1    2   -1   -1   -1   -1    1   -1   -1   18   -1   -1   -1   20   -1    1   -1    2   -1   -1    3   -1    9   -1   -1    5   16   -1 
   0    0    0    0    0    0    0    0    0    0    0    0    0    0    0    0    0   13   -1   -1   16    9   -1    4   15    3   -1   11   -1   -1   20   22   -1   -1   23    4   -1   -1   -1   -1   17   23   -1   -1   19   22   -1    4   -1   -1 
   0    0    0    0    0    0    0    0    0    0    0    0    0    0    0    0    0    0   13   20   -1   12   -1   14   23   -1   10   -1   18   -1   -1   -1    8   -1    7   -1   12   12   -1   -1   -1   -1   24   23   17   19   15   -1   17   -1 
   0    0    0    0    0    0    0    0    0    0    0    0    0    0    0    0    0    0    0   -1   -1   -1    6    7   -1   24   24    9    6   12   -1   -1   21   11    7   12   -1   -1   21   -1   -1   20   16    2   -1   -1   -1   -1    3   -1 
   0    0    0    0    0    0    0    0    0    0    0    0    0    0    0    0    0    0    0    0   24   -1   -1   12   -1    6    5   19    2   14    4   -1   -1   13   -1   -1    6   17   -1   -1   18   13   -1   -1   -1   10   20   -1   -1   -1 
   0    0    0    0    0    0    0    0    0    0    0    0    0    0    0    0    0    0    0    0    0    4   -1    5    5   20   -1   11   -1   -1   13   -1   -1   -1   18   -1   14   -1   -1   -1    9   18   10   20    2   19   -1   -1   19   -1 
   0    0    0    0    0    0    0    0    0    0    0    0    0    0    0    0    0    0    0    0    0    0   -1   -1   -1   -1    2   -1   -1   14    7    9   -1    6   -1   -1   -1   -1   -1   -1   15   21    9   -1   -1   -1   -1   -1   17   -1 
   0    0    0    0    0    0    0    0    0    0    0    0    0    0    0    0    0    0    0    0    0    0    0    3   -1   11   12    5    5    5   -1    2    8   22    6    5   -1   -1   15   -1   -1   -1   -1   -1   12   -1   -1   -1    5   12 
   0    0    0    0    0    0    0    0    0    0    0    0    0    0    0    0    0    0    0    0    0    0    0    0   -1   -1    6   23   23   16   10   -1   -1   -1    3   20   -1   12   -1   -1   -1   15   10   14   -1   14   23   -1   -1    5 
   0    0    0    0    0    0    0    0    0    0    0    0    0    0    0    0    0    0    0    0    0    0    0    0    0   -1   -1    3   16   -1    0   -1   -1   -1    3   -1   19   23   21   11   -1   -1   -1    7   -1   -1   -1   -1   14   -1 
   0    0    0    0    0    0    0    0    0    0    0    0    0    0    0    0    0    0    0    0    0    0    0    0    0    0   -1   22   -1   -1    5   -1   -1   -1   -1   -1   14   -1   -1   15   -1   -1   22   -1   -1   11   -1   -1   -1   14 
   0    0    0    0    0    0    0    0    0    0    0    0    0    0    0    0    0    0    0    0    0    0    0    0    0    0    0   -1   20   -1   -1    4    9   -1   -1   -1    3   -1    5    8    0   -1   -1   24    6   -1   -1   -1   11   15 
   0    0    0    0    0    0    0    0    0    0    0    0    0    0    0    0    0    0    0    0    0    0    0    0    0    0    0    0   -1   -1    3   19   11   -1   -1   -1   -1   -1   -1   12   -1   -1   -1   -1   -1   -1   -1   -1   -1    9 
   0    0    0    0    0    0    0    0    0    0    0    0    0    0    0    0    0    0    0    0    0    0    0    0    0    0    0    0    0   -1   21   24    2    0   -1   -1   18    6   14    2   17   21   -1   -1   -1   12    5    6    5   -1 
   0    0    0    0    0    0    0    0    0    0    0    0    0    0    0    0    0    0    0    0    0    0    0    0    0    0    0    0    0    0   -1   -1   19   -1   -1    0    9   -1   13   21    5   22    0   17   -1   -1   -1   -1   -1   -1 
   0    0    0    0    0    0    0    0    0    0    0    0    0    0    0    0    0    0    0    0    0    0    0    0    0    0    0    0    0    0    0    6   16   -1   12   -1   11   -1   -1   -1   -1   -1    7   16   -1   -1   -1   16   -1   -1 
   0    0    0    0    0    0    0    0    0    0    0    0    0    0    0    0    0    0    0    0    0    0    0    0    0    0    0    0    0    0    0    0   11    5    9   -1    5   -1    7   21   16   -1   18    5    6   24   20   -1   11   14 
   0    0    0    0    0    0    0    0    0    0    0    0    0    0    0    0    0    0    0    0    0    0    0    0    0    0    0    0    0    0    0    0    0   -1   11    6   -1   18   -1   -1    5   24   14   -1    5    6   -1   -1   -1   -1 
   0    0    0    0    0    0    0    0    0    0    0    0    0    0    0    0    0    0    0    0    0    0    0    0    0    0    0    0    0    0    0    0    0    0   19    3   10   -1   -1   12   20   -1   -1    1   -1   -1   -1    1   -1   -1 
   0    0    0    0    0    0    0    0    0    0    0    0    0    0    0    0    0    0    0    0    0    0    0    0    0    0    0    0    0    0    0    0    0    0    0   14   -1   -1   -1   -1   -1   16    8   -1   -1   -1   -1    9   -1   -1 
   0    0    0    0    0    0    0    0    0    0    0    0    0    0    0    0    0    0    0    0    0    0    0    0    0    0    0    0    0    0    0    0    0    0    0    0   -1    4   -1   -1   22   18   14   20    1   14    9   -1   -1   -1 
   0    0    0    0    0    0    0    0    0    0    0    0    0    0    0    0    0    0    0    0    0    0    0    0    0    0    0    0    0    0    0    0    0    0    0    0    0   -1    1   17    1   -1    9   -1   -1   -1   17   -1   -1   -1 
   0    0    0    0    0    0    0    0    0    0    0    0    0    0    0    0    0    0    0    0    0    0    0    0    0    0    0    0    0    0    0    0    0    0    0    0    0    0   -1   18   -1   16    2   -1   -1    0   18   21   -1   -1 
   0    0    0    0    0    0    0    0    0    0    0    0    0    0    0    0    0    0    0    0    0    0    0    0    0    0    0    0    0    0    0    0    0    0    0    0    0    0    0   15    2   -1   -1   12   24    4   -1    2   10    1 
   0    0    0    0    0    0    0    0    0    0    0    0    0    0    0    0    0    0    0    0    0    0    0    0    0    0    0    0    0    0    0    0    0    0    0    0    0    0    0    0   23   -1    8   21   -1   -1   -1   -1    1   -1 
   0    0    0    0    0    0    0    0    0    0    0    0    0    0    0    0    0    0    0    0    0    0    0    0    0    0    0    0    0    0    0    0    0    0    0    0    0    0    0    0    0   24   -1   19   -1   -1   -1    9   22   22 
   0    0    0    0    0    0    0    0    0    0    0    0    0    0    0    0    0    0    0    0    0    0    0    0    0    0    0    0    0    0    0    0    0    0    0    0    0    0    0    0    0    0    7   17   10   -1   -1   -1   18   24 
   0    0    0    0    0    0    0    0    0    0    0    0    0    0    0    0    0    0    0    0    0    0    0    0    0    0    0    0    0    0    0    0    0    0    0    0    0    0    0    0    0    0    0   17    1   -1    2   -1   -1    0 
   0    0    0    0    0    0    0    0    0    0    0    0    0    0    0    0    0    0    0    0    0    0    0    0    0    0    0    0    0    0    0    0    0    0    0    0    0    0    0    0    0    0    0    0   16   23   17   -1    8   -1 
   0    0    0    0    0    0    0    0    0    0    0    0    0    0    0    0    0    0    0    0    0    0    0    0    0    0    0    0    0    0    0    0    0    0    0    0    0    0    0    0    0    0    0    0    0   14   -1    8   -1   -1 
   0    0    0    0    0    0    0    0    0    0    0    0    0    0    0    0    0    0    0    0    0    0    0    0    0    0    0    0    0    0    0    0    0    0    0    0    0    0    0    0    0    0    0    0    0    0   21    3    8   14 
   0    0    0    0    0    0    0    0    0    0    0    0    0    0    0    0    0    0    0    0    0    0    0    0    0    0    0    0    0    0    0    0    0    0    0    0    0    0    0    0    0    0    0    0    0    0    0   -1   -1   -1 
   0    0    0    0    0    0    0    0    0    0    0    0    0    0    0    0    0    0    0    0    0    0    0    0    0    0    0    0    0    0    0    0    0    0    0    0    0    0    0    0    0    0    0    0    0    0    0    0   12   11 
   0    0    0    0    0    0    0    0    0    0    0    0    0    0    0    0    0    0    0    0    0    0    0    0    0    0    0    0    0    0    0    0    0    0    0    0    0    0    0    0    0    0    0    0    0    0    0    0    0   -1 
   0    0    0    0    0    0    0    0    0    0    0    0    0    0    0    0    0    0    0    0    0    0    0    0    0    0    0    0    0    0    0    0    0    0    0    0    0    0    0    0    0    0    0    0    0    0    0    0    0    0 
